NAME : tsp_42_sol.txt
COMMENT : OR-Tools Guided Local Search
TYPE : TOUR
DIMENSION : 190
COST : 10903
STATUS : ROUTING_SUCCESS
GAP : 0.00% (Reference Solution)
TOUR_SECTION
1
185
45
166
92
41
81
35
104
164
117
65
140
96
122
175
111
134
89
100
177
147
11
167
29
180
157
150
169
79
75
87
47
70
141
97
67
178
106
184
176
186
9
119
61
151
36
50
37
165
43
39
63
6
161
38
130
118
56
20
69
64
24
57
60
7
105
2
183
181
12
84
133
62
26
124
189
40
94
114
109
76
120
90
32
54
46
99
188
68
101
129
91
88
174
93
8
82
72
127
44
115
108
49
172
107
4
152
144
173
159
73
13
15
85
30
149
162
55
116
179
27
110
10
83
138
28
125
187
171
154
135
66
163
126
18
53
142
42
113
78
31
25
155
74
48
58
146
33
14
59
102
158
160
3
95
5
23
34
22
145
98
121
86
139
153
77
51
136
112
170
182
132
71
21
148
52
19
137
80
168
103
128
16
143
156
17
123
190
131
-1
